param Dem = 30;
param MaxPer :=
	2	5		
	3	8	
	4	10
	5	5
	6	14
	7	10
	8	12
	9	15
;
param CapAv = 15;
param Dis:
		1	2	3	4	5	6	7	8	9	10	:=
	1	.	4	2	5	.	.	.	.	.	.	
	2	2	.	3	6	7	.	10	.	10	.	
	3	6	3	.	.	.	.	6	9	.	.	
	4	5	7	.	.	10	.	.	.	.	.	
	5	.	8	.	6	.	9	.	.	17	.	
	6	.	.	.	.	3	.	.	.	.	4	
	7	.	3	7	.	.	.	.	10	4	.	
	8	.	.	15	.	.	.	7	.	13	.	
	9	.	8	.	.	4	.	10	13	.	8	
	10	.	.	.	.	.	3	.	.	9	.	
;